certificates/rado_a5_c28_N9.cnf
c Rad2 upper bound instance: x1 + 5*x2 - x3 = 28, interval [1,9]
p cnf 9 30
1 3 6 0
-1 -3 -6 0
1 7 8 0
-1 -7 -8 0
2 4 6 0
-2 -4 -6 0
2 7 9 0
-2 -7 -9 0
3 5 6 0
-3 -5 -6 0
1 4 5 0
-1 -4 -5 0
4 6 0
-4 -6 0
2 5 0
-2 -5 0
5 6 7 0
-5 -6 -7 0
6 8 0
-6 -8 0
4 5 7 0
-4 -5 -7 0
6 7 9 0
-6 -7 -9 0
5 8 0
-5 -8 0
1 4 9 0
-1 -4 -9 0
5 6 9 0
-5 -6 -9 0
