certificates/rado_a5_c28_N9.drat
-8 -9 0
-9 0
-6 -5 0
d -6 -7 -5 0
8 0
-6 0
-5 0
4 0
7 0
0
